(define-fun-rec
  u5
  ((x Int) (y Int)) Int (ite (<= x 0) y (* (u5 (- x 1) y) x)))
(define-fun-rec
  u2
  ((x Int) (y Int)) Int (ite (<= x 0) y (* (u2 (- x 1) y) x)))
(define-fun
  v2
  ((x Int) (y Int)) Int (u2 y x))
(define-fun-rec
  u1
  ((x Int) (y Int)) Int (ite (<= x 0) y (v2 (u1 (- x 1) y) x)))
(define-fun
  v1
  ((x Int) (y Int)) Int (u1 y 1))
(define-fun
  j0
  ((x Int)) Int x)
(define-fun
  h5
  ((x Int) (y Int)) Int y)
(define-fun
  h3
  ((x Int)) Int (+ (+ x x) x))
(define-fun
  h2
  ((x Int)) Int x)
(define-fun
  h0
  ((x Int)) Int x)
(define-fun
  g5
  ((x Int) (y Int)) Int (- y 1))
(define-fun
  v5
  ((x Int) (y Int)) Int (u5 (g5 x y) y))
(define-fun
  g4
  ((x Int)) Int (- x 2))
(define-fun
  g3
  ((x Int)) Int (ite (<= x 0) 0 1))
(define-fun
  g2
  ((x Int) (y Int)) Int y)
(define-fun
  g1
  ((x Int) (y Int)) Int y)
(define-fun
  g0
  ((x Int) (y Int)) Int (+ 2 y))
(define-funs-rec
  ((v0
    ((x Int) (y Int) (z Int)) Int)
   (u0
    ((x Int) (y Int) (z Int)) Int))
  ((ite (<= x 0) z (g0 (u0 (- x 1) y z) (v0 (- x 1) y z)))
   (ite (<= x 0) y (v1 (u0 (- x 1) y z) (v0 (- x 1) y z)))))
(define-fun
  w0
  ((x Int)) Int (u0 x 0 x))
(define-fun
  f4
  ((x Int) (y Int)) Int (* (v5 x y) x))
(define-fun-rec
  u4
  ((x Int) (y Int)) Int (ite (<= x 0) y (f4 (u4 (- x 1) y) x)))
(define-fun
  v4
  ((x Int)) Int (u4 (g4 x) 1))
(define-fun-rec
  u3
  ((x Int) (y Int)) Int (ite (<= x 0) y (v4 (u3 (- x 1) y))))
(define-fun
  v3
  ((x Int)) Int (u3 (g3 x) (h3 x)))
(assert-not
  (forall ((c Int)) (or (not (>= c 0)) (= (w0 c) (v3 c)))))
